175 300 210 230 237 228 207 226 231 212 206 230 210 239 216 221 203 222 238 243 242 238 201 228 250 200 214 249 228 244 223 227 219 207 231 205 235 212 205 241 224 236 220 208 224 210 229 227 233 241 219 224 202 246 226 227 246 214 225 248 233 249 224 226 230 229 205 240 241 210 230 214 246 224 248 244 234 226 245 216 242 238 214 218 233 214 245 202 229 220 250 236 243 248 211 247 226 216 236 241 200 240 205 220 238 227 238 247 227 232 212 218 244 201 211 227 240 205 203 218 250 228 228 242 225 213 239 226 203 249 216 203 239 246 248 200 247 235 247 224 216 234 216 235 235 227 211 224 207 239 217 206 216 219 249 216 233 237 216 236 209 206 214 248 227 211 223 223 247 219 247 237 202 238 221 211 214 